NAME : sko-64.-640.tour
COMMENT : Length = -640
COMMENT : Found by LKH [Keld Helsgaun] Sun Apr 13 17:05:01 2025
TYPE : TOUR
DIMENSION : 64
TOUR_SECTION
1
24
21
49
63
10
58
26
17
56
4
22
62
59
13
41
11
28
40
60
18
35
45
25
42
20
48
19
8
51
47
6
5
32
46
36
14
52
9
29
55
7
39
38
15
54
34
37
50
43
27
12
23
16
53
57
61
3
31
2
33
30
64
44
-1
EOF
